Gurobi Optimizer version 9.1.2 build v9.1.2rc0 (linux64)
Thread count: 36 physical cores, 72 logical processors, using up to 32 threads
Optimize a model with 12 rows, 57 columns and 590 nonzeros
Model fingerprint: 0xf32eec78
Model has 47 quadratic constraints
Coefficient statistics:
  Matrix range     [2e-05, 3e+00]
  QMatrix range    [1e+00, 1e+00]
  QLMatrix range   [1e+00, 1e+00]
  Objective range  [8e-03, 7e-01]
  Bounds range     [1e+00, 1e+00]
  RHS range        [1e+00, 1e+00]
Presolve removed 9 rows and 0 columns

Continuous model is non-convex -- solving as a MIP.

Presolve removed 9 rows and 0 columns
Presolve time: 0.00s
Presolved: 189 rows, 57 columns, 443 nonzeros
Presolved model has 47 bilinear constraint(s)
Variable types: 57 continuous, 0 integer (0 binary)

Root relaxation: objective -1.743721e+00, 44 iterations, 0.00 seconds

    Nodes    |    Current Node    |     Objective Bounds      |     Work
 Expl Unexpl |  Obj  Depth IntInf | Incumbent    BestBd   Gap | It/Node Time

     0     0   -1.74372    0   38          -   -1.74372      -     -    0s
H    0     0                       0.6147548   -1.74372   384%     -    0s
     0     0   -1.64739    0    1    0.61475   -1.64739   368%     -    0s
H    0     0                      -1.6450460   -1.64739  0.14%     -    0s
     0     0     cutoff    0        -1.64505   -1.64505  0.00%     -    0s

Cutting planes:
  RLT: 25
  BQP: 3

Explored 1 nodes (76 simplex iterations) in 0.01 seconds
Thread count was 32 (of 72 available processors)

Solution count 2: -1.64505 0.614755 
No other solutions better than -1.64505

Optimal solution found (tolerance 1.00e-04)
Best objective -1.645045978473e+00, best bound -1.645045978473e+00, gap 0.0000%

User-callback calls 78, time in user-callback 0.00 sec
Gurobi Optimizer version 9.1.2 build v9.1.2rc0 (linux64)
Thread count: 36 physical cores, 72 logical processors, using up to 32 threads
Optimize a model with 24 rows, 125 columns and 2580 nonzeros
Model fingerprint: 0x6da231c1
Model has 105 quadratic constraints
Coefficient statistics:
  Matrix range     [5e-06, 5e+01]
  QMatrix range    [1e+00, 1e+00]
  QLMatrix range   [1e+00, 1e+00]
  Objective range  [9e-03, 9e-01]
  Bounds range     [1e+00, 1e+00]
  RHS range        [1e+00, 1e+00]
Presolve removed 10 rows and 0 columns

Continuous model is non-convex -- solving as a MIP.

Presolve removed 10 rows and 0 columns
Presolve time: 0.00s
Presolved: 429 rows, 125 columns, 2142 nonzeros
Presolved model has 105 bilinear constraint(s)
Variable types: 125 continuous, 0 integer (0 binary)

Root relaxation: objective -4.214151e+00, 141 iterations, 0.00 seconds

    Nodes    |    Current Node    |     Objective Bounds      |     Work
 Expl Unexpl |  Obj  Depth IntInf | Incumbent    BestBd   Gap | It/Node Time

     0     0   -4.21415    0   95          -   -4.21415      -     -    0s
H    0     0                       0.1505894   -4.21415  2898%     -    0s
     0     0   -3.52842    0   72    0.15059   -3.52842  2443%     -    0s
H    0     0                      -1.5121222   -3.52842   133%     -    0s
     0     0   -3.47548    0   72   -1.51212   -3.47548   130%     -    0s
     0     0   -3.40420    0   72   -1.51212   -3.40420   125%     -    0s
     0     0   -3.39224    0   66   -1.51212   -3.39224   124%     -    0s
     0     0   -3.35257    0   72   -1.51212   -3.35257   122%     -    0s
     0     0   -3.35116    0   72   -1.51212   -3.35116   122%     -    0s
     0     0   -3.33438    0   42   -1.51212   -3.33438   121%     -    0s
H    0     0                      -1.5818938   -3.33438   111%     -    0s
     0     0   -3.33202    0   42   -1.58189   -3.33202   111%     -    0s
     0     0   -3.32804    0   62   -1.58189   -3.32804   110%     -    0s
     0     0   -3.32745    0   94   -1.58189   -3.32745   110%     -    0s
     0     0   -3.32703    0   94   -1.58189   -3.32703   110%     -    0s
H    0     0                      -1.9084563   -3.32703  74.3%     -    0s
H    0     0                      -2.0912721   -3.32703  59.1%     -    0s
H    0     0                      -2.2507064   -3.32703  47.8%     -    0s
H    0     0                      -2.2579505   -3.32703  47.3%     -    0s
     0     2   -3.32703    0   94   -2.25795   -3.32703  47.3%     -    0s
*  750   716              28      -2.2639153   -3.04886  34.7%  28.4    0s
*  908   878              24      -2.6756385   -3.04886  13.9%  26.3    0s
*  983   878              31      -2.7312999   -3.04886  11.6%  25.9    0s
* 1631  1254              19      -2.7314123   -3.04886  11.6%  22.4    0s
* 1683  1254              22      -2.7392160   -3.04886  11.3%  21.9    0s
* 1684  1254              22      -2.7392161   -3.04886  11.3%  21.9    0s
* 1856  1471              23      -2.7481257   -3.04886  10.9%  20.7    0s
* 2021  1471              23      -2.8188680   -3.04886  8.16%  19.9    0s
* 2295  1627              26      -2.8432625   -2.92118  2.74%  18.8    0s
* 2297  1627              27      -2.8433113   -2.92118  2.74%  18.8    0s
* 2315  1627              20      -2.8484668   -2.92118  2.55%  18.7    0s
* 2318  1627              20      -2.8484756   -2.92118  2.55%  18.7    0s
* 2334  1627              26      -2.8785707   -2.92118  1.48%  18.6    0s
* 2336  1627              27      -2.8786607   -2.92118  1.48%  18.6    0s
* 2337  1627              27      -2.8786628   -2.92118  1.48%  18.6    0s
* 2338  1627              25      -2.8787159   -2.92118  1.48%  18.6    0s
* 2436  1627              35      -2.8878513   -2.92118  1.15%  18.2    0s
* 2666  1607              23      -2.8897346   -2.92118  1.09%  17.3    0s
* 2669  1607              23      -2.8897348   -2.92118  1.09%  17.3    0s
* 2754  1607              25      -2.8901149   -2.90897  0.65%  17.0    0s
* 2756  1607              26      -2.8901151   -2.90897  0.65%  17.0    0s
* 2758  1607              27      -2.8901151   -2.90897  0.65%  16.9    0s
* 3265   964              17      -2.8902232   -2.89504  0.17%  15.2    0s
* 3269   964              19      -2.8902317   -2.89504  0.17%  15.2    0s
* 3845   260              23      -2.8904202   -2.89067  0.01%  13.0    0s
* 3860   260              18      -2.8904770   -2.89067  0.01%  12.9    0s

Cutting planes:
  RLT: 59
  BQP: 11
  PSD: 25

Explored 4605 nodes (50417 simplex iterations) in 0.84 seconds
Thread count was 32 (of 72 available processors)

Solution count 10: -2.89048 -2.89042 -2.89023 ... -2.87872

Optimal solution found (tolerance 1.00e-04)
Best objective -2.890477035121e+00, best bound -2.890509484117e+00, gap 0.0011%

User-callback calls 9543, time in user-callback 0.00 sec



objective value: -2.890477035121246
objective bound: -2.890509484117109
x_opt: [0.0, 0.0, 1.0, 2.4740354129653224e-10, 0.9999999997526663, 0.6714681453071681, 0.9999915220329387, 1.0, 1.0, 0.0, 0.0, 0.19788363800276554, 5.95393988647024e-5, 7.263652370794089e-9, 0.0, 0.49404340715659206, 3.078874600847311e-13, 0.0, 0.005546166505713604, 0.0]
GUROBI solution time: 0.8355388641357422




